Route #1: 73 1 22 64 42 43 41 56 23
Route #2: 68 2 62 28 61 21 74
Route #3: 45 29 37 20 70 60 71 69 36 47
Route #4: 52 27 13 57 15 5 48 30
Route #5: 67 46 34 4 75
Route #6: 35 53 14 59 54 19 8
Route #7: 26 38 65 66 11 7
Route #8: 58 10 31 55 25 9 39 72
Route #9: 6 51 3 44 32 40 17
Route #10: 12 50 18 24 49 16 63 33
Cost 836
Time 0.161627
